problems/csplib-prob049/set_partition_simple-models/compact/O0/minion/model_1_1-8-solution000001.eprime-solution
language ESSENCE' 1.0

letting setA_Occurrence be [false, true, true, false, true, false, false, true; int(1..8)]
letting setB_Occurrence be [true, false, false, true, false, true, true, false; int(1..8)]
