problems/csplib-prob049/set_partition_simple-models/noch/O0/minion/model_1_1-8-solution000001.solution
language Essence 1.3

letting setA be {2, 3, 5, 8}
letting setB be {1, 4, 6, 7}
